\ENCODING=ISO-8859-1
\Problem name: 

Minimize
 obj1: 40 x_1 + 47 x_2 + 59 x_3 + 64 x_4 + 44 x_5 + 55 x_6 + 44 x_7 + 46 x_8
       + 70 x_9 + 49 x_10 + t
Subject To
 c1:  - x_1 - x_2 - x_3 - x_4 - x_5 - x_6 - x_7 - x_8 - x_9 - x_10 >= -10
 b_0: 188000 x_1 + 188000 x_2 + 188000 x_3 + 188000 x_4 + 188000 x_5
      + 188000 x_6 + 188000 x_7 + 188000 x_8 + 188000 x_9 + 188000 x_10 + t
      >= 62737.2
 b_1: 14273.899628685 x_1 + 183359.646666667 x_2 + 179272.795769231 x_3
      + 179601.636666667 x_4 + 174039.144206774 x_5 + 167233.067392668 x_6
      + 146995.969365079 x_7 + 161538.222675214 x_8 + 188000 x_9
      + 109056.705951186 x_10 + t >= 19604.3633295397
Bounds
 0 <= x_1 <= 1
 0 <= x_2 <= 1
 0 <= x_3 <= 1
 0 <= x_4 <= 1
 0 <= x_5 <= 1
 0 <= x_6 <= 1
 0 <= x_7 <= 1
 0 <= x_8 <= 1
 0 <= x_9 <= 1
 0 <= x_10 <= 1
      t >= -6606
Binaries
 x_1  x_2  x_3  x_4  x_5  x_6  x_7  x_8  x_9  x_10 
End
